Maximize
  0 x0 - 12 x1 + 0 x2 + 0 x3 - 42 x4 + 0 x5 + 0 x6 + 0 x7 + 0 x8 + 0 x9
   + 0 x10 + 34 x11 + 0 x12 - 20 x13 + 0 x14 + 0 x15 + 0 x16 + 0 x17
   + 0 x18 - 11 x19 + 0 x20 + 0 x21 + 0 x22 + 0 x23 - 15 x24 - 31 x25
   + 0 x26 + 0 x27 + 0 x28 + 0 x29 + 0 x30 - 36 x31 + 3 x32 + 11 x33
   + 0 x34 + 0 x35 - 34 x36 + 0 x37 + 0 x38 + 0 x39 + [ - 34 x0 * x4
   + 84 x0 * x7 - 90 x0 * x9 + 92 x0 * x11 + 46 x0 * x15 + 68 x0 * x16
   + 90 x0 * x17 + 94 x0 * x20 - 94 x0 * x21 - 16 x0 * x27 + 58 x0 * x28
   - 10 x0 * x36 - 12 x0 * x38 + 84 x1 * x7 + 18 x1 * x8 - 40 x1 * x9
   + 44 x1 * x10 - 64 x1 * x21 + 78 x1 * x23 + 32 x1 * x24 + 60 x1 * x29
   - 8 x1 * x32 + 68 x1 * x33 + 58 x1 * x39 + 22 x2 ^2 - 48 x2 * x12
   + 80 x2 * x18 + 32 x2 * x19 + 80 x2 * x24 - 32 x2 * x28 - 66 x2 * x30
   - 80 x2 * x36 - 2 x2 * x39 - 18 x3 * x4 + 20 x3 * x5 + 8 x3 * x6
   - 12 x3 * x15 - 24 x3 * x23 + 72 x3 * x28 - 68 x3 * x31 + 96 x3 * x32
   - 86 x3 * x34 + 70 x3 * x37 + 82 x3 * x38 + 84 x4 * x14 + 22 x4 * x16
   - 44 x4 * x20 - 74 x4 * x21 - 72 x4 * x27 - 86 x4 * x30 + 60 x4 * x31
   - 4 x4 * x33 + 26 x4 * x34 - 8 x4 * x35 - 32 x4 * x37 + 78 x5 * x7
   + 22 x5 * x12 + 66 x5 * x13 - 58 x5 * x17 - 96 x5 * x18 + 30 x5 * x19
   + 38 x5 * x21 - 56 x5 * x22 + 86 x5 * x26 - 84 x5 * x28 - 28 x5 * x29
   - 54 x5 * x30 + 96 x5 * x31 + 58 x5 * x35 - 8 x5 * x36 + 6 x5 * x38
   + 68 x5 * x39 - 72 x6 * x9 - 40 x6 * x10 - 42 x6 * x11 - 70 x6 * x13
   + 60 x6 * x15 - 14 x6 * x16 - 58 x6 * x17 - 48 x6 * x18 - 6 x6 * x20
   - 88 x6 * x22 - 76 x6 * x29 + 74 x6 * x39 + 64 x7 * x10 - 18 x7 * x11
   + 34 x7 * x12 - 62 x7 * x15 - 70 x7 * x16 - 44 x7 * x19 + 12 x7 * x23
   + 36 x7 * x24 + 92 x7 * x38 - 98 x8 * x15 - 4 x8 * x16 + 4 x8 * x17
   + 56 x8 * x19 - 8 x8 * x20 + 42 x8 * x21 - 4 x8 * x28 + 10 x8 * x33
   + 36 x8 * x36 - 38 x8 * x37 + 10 x9 * x10 - 90 x9 * x11 + 98 x9 * x12
   - 82 x9 * x13 + 34 x9 * x14 - 6 x9 * x20 - 60 x9 * x25 - 16 x9 * x30
   - 6 x9 * x33 + 78 x9 * x37 + 90 x9 * x38 - 8 x10 ^2 + 40 x10 * x14
   + 86 x10 * x15 + 36 x10 * x16 + 4 x10 * x33 - 46 x10 * x34
   + 14 x11 * x16 + 28 x11 * x19 - 16 x11 * x23 + 86 x11 * x25
   - 44 x11 * x27 + 46 x11 * x29 + 72 x11 * x37 + 54 x11 * x39
   + 22 x12 * x14 + 42 x12 * x19 - 70 x12 * x21 + 30 x12 * x23
   + 44 x12 * x24 - 10 x12 * x26 + 8 x12 * x30 - 50 x12 * x31
   - 32 x12 * x36 + 66 x13 * x15 + 42 x13 * x17 + 38 x13 * x21
   + 52 x13 * x27 + 56 x13 * x32 - 36 x13 * x35 + 68 x13 * x36
   + 34 x13 * x39 + 64 x14 * x19 - 66 x14 * x21 - 58 x14 * x23
   - 88 x14 * x26 - 38 x14 * x28 - 70 x14 * x29 - 34 x14 * x34
   + 28 x14 * x35 + 28 x15 * x19 + 6 x15 * x23 + 68 x15 * x28
   - 86 x15 * x29 - 84 x15 * x31 + 24 x15 * x35 - 32 x16 * x17
   + 14 x16 * x23 - 52 x16 * x26 - 84 x16 * x28 - 10 x17 * x18
   - 26 x17 * x21 + 36 x17 * x23 - 90 x17 * x27 + 76 x17 * x28
   - 70 x17 * x31 - 42 x17 * x33 + 22 x17 * x34 + 38 x17 * x35
   - 88 x18 * x19 + 96 x18 * x20 + 18 x18 * x21 + 26 x18 * x22
   - 56 x18 * x23 - 16 x18 * x25 - 78 x18 * x29 - 76 x18 * x30
   + 16 x18 * x37 - 76 x19 * x21 - 34 x19 * x28 - 66 x19 * x32
   + 18 x19 * x33 + 20 x19 * x39 + 20 x20 * x22 - 58 x20 * x25
   - 94 x20 * x26 - 36 x20 * x27 + 10 x20 * x29 + 6 x20 * x32
   - 64 x20 * x33 - 66 x20 * x34 - 98 x20 * x36 - 6 x20 * x39 + 11 x21 ^2
   - 12 x21 * x29 + 80 x21 * x32 - 46 x21 * x37 - 48 x22 * x23
   + 2 x22 * x27 - 38 x22 * x38 - 70 x23 * x27 - 56 x23 * x30
   - 52 x23 * x31 - 86 x23 * x33 - 52 x23 * x36 + 88 x23 * x39 + 24 x25 ^2
   - 42 x25 * x32 - 62 x25 * x34 + 38 x25 * x38 + 82 x25 * x39
   + 94 x27 * x28 - 42 x27 * x30 - 30 x27 * x34 - 76 x27 * x35
   + 96 x28 * x30 - 36 x28 * x34 - 80 x29 * x32 + 15 x30 ^2 - 92 x30 * x34
   - 80 x31 * x32 + 88 x31 * x35 + 62 x31 * x37 + 46 x31 * x39
   + 38 x32 * x36 - 54 x32 * x37 - 24 x33 * x34 - 74 x35 * x36
   + 44 x36 * x38 + 3 x37 ^2 - 41 x39 ^2 ] / 2 
Subject To
Bounds
 x0 <= 1
 x1 <= 1
 x2 <= 1
 x3 <= 1
 x4 <= 1
 x5 <= 1
 x6 <= 1
 x7 <= 1
 x8 <= 1
 x9 <= 1
 x10 <= 1
 x11 <= 1
 x12 <= 1
 x13 <= 1
 x14 <= 1
 x15 <= 1
 x16 <= 1
 x17 <= 1
 x18 <= 1
 x19 <= 1
 x20 <= 1
 x21 <= 1
 x22 <= 1
 x23 <= 1
 x24 <= 1
 x25 <= 1
 x26 <= 1
 x27 <= 1
 x28 <= 1
 x29 <= 1
 x30 <= 1
 x31 <= 1
 x32 <= 1
 x33 <= 1
 x34 <= 1
 x35 <= 1
 x36 <= 1
 x37 <= 1
 x38 <= 1
 x39 <= 1
End
